10 17 20 24 30 22 6 25 14 21 20 14 29 6 17 13 27 10 6 32 25 25 18 26 8 30 8 30 21 19 32 6 14 18 13 34 9 21 16 31 15 21 6 6 18 26 9 6 32 31 28 28 30 33 34 30 10 9 18 22 17 11 30 11 28 17 13 21 20 22 15 22 13 30 9 27 18 22 19 11 31 12 6 19 6 22 23 27 27 7 18 20 12 26 5 29 29 12 7 33 